c A SAT instance generated from a 3-CNF formula that had 20 clauses and 20 variables
p cnf 20 20
6 -4 12 0
16 9 1 0
7 4 -1 0
-20 14 15 0
10 4 2 0
-16 -6 -19 0
13 6 4 0
-19 16 -7 0
-15 -18 -9 0
16 17 -8 0
14 6 -5 0
-6 5 3 0
-10 -3 -16 0
16 9 -14 0
8 -2 -9 0
-8 -3 9 0
11 -4 -14 0
7 4 -5 0
20 -8 12 0
13 -6 4 0
